token literal names:
null
':'
'free'
null
null
null
null
null
null
null
null
null
null
null
null
'+'
'-'
null
null
'='
null
null

token symbolic names:
null
null
null
LF
MAXIMIZE
MINIMIZE
BOUNDS
BINARIES
GENERALS
ST
END
INF
COMMENT
NEWLINE
NUMBER
PLUS
MINUS
LEQ
GEQ
EQ
NAME
SPACES

rule names:
prog
direction
objective_region
constraint_region
bound_region
var_name
cstr_name
binaries_region
generals_region
expr
naming
cstr
obj
eof
term
bound
onesided_bound
twosided_bound
bound_free
num_or_inf
sense


atn:
[3, 24715, 42794, 33075, 47597, 16764, 15335, 30598, 22884, 3, 23, 285, 4, 2, 9, 2, 4, 3, 9, 3, 4, 4, 9, 4, 4, 5, 9, 5, 4, 6, 9, 6, 4, 7, 9, 7, 4, 8, 9, 8, 4, 9, 9, 9, 4, 10, 9, 10, 4, 11, 9, 11, 4, 12, 9, 12, 4, 13, 9, 13, 4, 14, 9, 14, 4, 15, 9, 15, 4, 16, 9, 16, 4, 17, 9, 17, 4, 18, 9, 18, 4, 19, 9, 19, 4, 20, 9, 20, 4, 21, 9, 21, 4, 22, 9, 22, 3, 2, 3, 2, 3, 2, 3, 2, 5, 2, 49, 10, 2, 3, 2, 5, 2, 52, 10, 2, 3, 2, 5, 2, 55, 10, 2, 3, 2, 5, 2, 58, 10, 2, 5, 2, 60, 10, 2, 3, 2, 3, 2, 3, 3, 3, 3, 3, 4, 7, 4, 67, 10, 4, 12, 4, 14, 4, 70, 11, 4, 3, 4, 3, 4, 6, 4, 74, 10, 4, 13, 4, 14, 4, 75, 3, 4, 3, 4, 5, 4, 80, 10, 4, 3, 5, 3, 5, 6, 5, 84, 10, 5, 13, 5, 14, 5, 85, 3, 5, 6, 5, 89, 10, 5, 13, 5, 14, 5, 90, 3, 5, 5, 5, 94, 10, 5, 3, 6, 3, 6, 6, 6, 98, 10, 6, 13, 6, 14, 6, 99, 3, 6, 6, 6, 103, 10, 6, 13, 6, 14, 6, 104, 3, 6, 5, 6, 108, 10, 6, 3, 7, 3, 7, 3, 8, 3, 8, 3, 9, 3, 9, 6, 9, 116, 10, 9, 13, 9, 14, 9, 117, 3, 9, 6, 9, 121, 10, 9, 13, 9, 14, 9, 122, 6, 9, 125, 10, 9, 13, 9, 14, 9, 126, 3, 9, 5, 9, 130, 10, 9, 3, 10, 3, 10, 6, 10, 134, 10, 10, 13, 10, 14, 10, 135, 3, 10, 6, 10, 139, 10, 10, 13, 10, 14, 10, 140, 6, 10, 143, 10, 10, 13, 10, 14, 10, 144, 3, 10, 5, 10, 148, 10, 10, 3, 11, 5, 11, 151, 10, 11, 3, 11, 7, 11, 154, 10, 11, 12, 11, 14, 11, 157, 11, 11, 3, 11, 3, 11, 7, 11, 161, 10, 11, 12, 11, 14, 11, 164, 11, 11, 3, 11, 3, 11, 7, 11, 168, 10, 11, 12, 11, 14, 11, 171, 11, 11, 3, 11, 3, 11, 3, 12, 3, 12, 3, 12, 3, 13, 5, 13, 179, 10, 13, 3, 13, 3, 13, 7, 13, 183, 10, 13, 12, 13, 14, 13, 186, 11, 13, 3, 13, 3, 13, 7, 13, 190, 10, 13, 12, 13, 14, 13, 193, 11, 13, 3, 13, 3, 13, 3, 14, 5, 14, 198, 10, 14, 3, 14, 3, 14, 3, 15, 3, 15, 7, 15, 204, 10, 15, 12, 15, 14, 15, 207, 11, 15, 3, 15, 3, 15, 3, 16, 3, 16, 3, 16, 7, 16, 214, 10, 16, 12, 16, 14, 16, 217, 11, 16, 3, 16, 3, 16, 5, 16, 221, 10, 16, 3, 17, 3, 17, 3, 17, 5, 17, 226, 10, 17, 3, 18, 3, 18, 3, 18, 3, 18, 3, 18, 3, 18, 3, 18, 3, 18, 5, 18, 236, 10, 18, 3, 19, 3, 19, 7, 19, 240, 10, 19, 12, 19, 14, 19, 243, 11, 19, 3, 19, 3, 19, 7, 19, 247, 10, 19, 12, 19, 14, 19, 250, 11, 19, 3, 19, 3, 19, 7, 19, 254, 10, 19, 12, 19, 14, 19, 257, 11, 19, 3, 19, 3, 19, 7, 19, 261, 10, 19, 12, 19, 14, 19, 264, 11, 19, 3, 19, 3, 19, 3, 20, 3, 20, 7, 20, 270, 10, 20, 12, 20, 14, 20, 273, 11, 20, 3, 20, 3, 20, 3, 21, 3, 21, 3, 21, 3, 21, 5, 21, 281, 10, 21, 3, 22, 3, 22, 3, 22, 13, 155, 162, 169, 184, 191, 215, 241, 248, 255, 262, 271, 2, 23, 2, 4, 6, 8, 10, 12, 14, 16, 18, 20, 22, 24, 26, 28, 30, 32, 34, 36, 38, 40, 42, 2, 5, 3, 2, 6, 7, 3, 2, 17, 18, 3, 2, 19, 21, 2, 307, 2, 44, 3, 2, 2, 2, 4, 63, 3, 2, 2, 2, 6, 68, 3, 2, 2, 2, 8, 81, 3, 2, 2, 2, 10, 95, 3, 2, 2, 2, 12, 109, 3, 2, 2, 2, 14, 111, 3, 2, 2, 2, 16, 113, 3, 2, 2, 2, 18, 131, 3, 2, 2, 2, 20, 150, 3, 2, 2, 2, 22, 174, 3, 2, 2, 2, 24, 178, 3, 2, 2, 2, 26, 197, 3, 2, 2, 2, 28, 201, 3, 2, 2, 2, 30, 220, 3, 2, 2, 2, 32, 225, 3, 2, 2, 2, 34, 235, 3, 2, 2, 2, 36, 237, 3, 2, 2, 2, 38, 267, 3, 2, 2, 2, 40, 280, 3, 2, 2, 2, 42, 282, 3, 2, 2, 2, 44, 45, 5, 6, 4, 2, 45, 46, 5, 8, 5, 2, 46, 59, 5, 10, 6, 2, 47, 49, 5, 18, 10, 2, 48, 47, 3, 2, 2, 2, 48, 49, 3, 2, 2, 2, 49, 51, 3, 2, 2, 2, 50, 52, 5, 16, 9, 2, 51, 50, 3, 2, 2, 2, 51, 52, 3, 2, 2, 2, 52, 60, 3, 2, 2, 2, 53, 55, 5, 16, 9, 2, 54, 53, 3, 2, 2, 2, 54, 55, 3, 2, 2, 2, 55, 57, 3, 2, 2, 2, 56, 58, 5, 18, 10, 2, 57, 56, 3, 2, 2, 2, 57, 58, 3, 2, 2, 2, 58, 60, 3, 2, 2, 2, 59, 48, 3, 2, 2, 2, 59, 54, 3, 2, 2, 2, 60, 61, 3, 2, 2, 2, 61, 62, 5, 28, 15, 2, 62, 3, 3, 2, 2, 2, 63, 64, 9, 2, 2, 2, 64, 5, 3, 2, 2, 2, 65, 67, 7, 5, 2, 2, 66, 65, 3, 2, 2, 2, 67, 70, 3, 2, 2, 2, 68, 66, 3, 2, 2, 2, 68, 69, 3, 2, 2, 2, 69, 71, 3, 2, 2, 2, 70, 68, 3, 2, 2, 2, 71, 73, 5, 4, 3, 2, 72, 74, 7, 15, 2, 2, 73, 72, 3, 2, 2, 2, 74, 75, 3, 2, 2, 2, 75, 73, 3, 2, 2, 2, 75, 76, 3, 2, 2, 2, 76, 77, 3, 2, 2, 2, 77, 79, 5, 26, 14, 2, 78, 80, 7, 15, 2, 2, 79, 78, 3, 2, 2, 2, 79, 80, 3, 2, 2, 2, 80, 7, 3, 2, 2, 2, 81, 88, 7, 11, 2, 2, 82, 84, 7, 15, 2, 2, 83, 82, 3, 2, 2, 2, 84, 85, 3, 2, 2, 2, 85, 83, 3, 2, 2, 2, 85, 86, 3, 2, 2, 2, 86, 87, 3, 2, 2, 2, 87, 89, 5, 24, 13, 2, 88, 83, 3, 2, 2, 2, 89, 90, 3, 2, 2, 2, 90, 88, 3, 2, 2, 2, 90, 91, 3, 2, 2, 2, 91, 93, 3, 2, 2, 2, 92, 94, 7, 15, 2, 2, 93, 92, 3, 2, 2, 2, 93, 94, 3, 2, 2, 2, 94, 9, 3, 2, 2, 2, 95, 102, 7, 8, 2, 2, 96, 98, 7, 15, 2, 2, 97, 96, 3, 2, 2, 2, 98, 99, 3, 2, 2, 2, 99, 97, 3, 2, 2, 2, 99, 100, 3, 2, 2, 2, 100, 101, 3, 2, 2, 2, 101, 103, 5, 32, 17, 2, 102, 97, 3, 2, 2, 2, 103, 104, 3, 2, 2, 2, 104, 102, 3, 2, 2, 2, 104, 105, 3, 2, 2, 2, 105, 107, 3, 2, 2, 2, 106, 108, 7, 15, 2, 2, 107, 106, 3, 2, 2, 2, 107, 108, 3, 2, 2, 2, 108, 11, 3, 2, 2, 2, 109, 110, 7, 22, 2, 2, 110, 13, 3, 2, 2, 2, 111, 112, 7, 22, 2, 2, 112, 15, 3, 2, 2, 2, 113, 124, 7, 9, 2, 2, 114, 116, 7, 15, 2, 2, 115, 114, 3, 2, 2, 2, 116, 117, 3, 2, 2, 2, 117, 115, 3, 2, 2, 2, 117, 118, 3, 2, 2, 2, 118, 120, 3, 2, 2, 2, 119, 121, 5, 12, 7, 2, 120, 119, 3, 2, 2, 2, 121, 122, 3, 2, 2, 2, 122, 120, 3, 2, 2, 2, 122, 123, 3, 2, 2, 2, 123, 125, 3, 2, 2, 2, 124, 115, 3, 2, 2, 2, 125, 126, 3, 2, 2, 2, 126, 124, 3, 2, 2, 2, 126, 127, 3, 2, 2, 2, 127, 129, 3, 2, 2, 2, 128, 130, 7, 15, 2, 2, 129, 128, 3, 2, 2, 2, 129, 130, 3, 2, 2, 2, 130, 17, 3, 2, 2, 2, 131, 142, 7, 10, 2, 2, 132, 134, 7, 15, 2, 2, 133, 132, 3, 2, 2, 2, 134, 135, 3, 2, 2, 2, 135, 133, 3, 2, 2, 2, 135, 136, 3, 2, 2, 2, 136, 138, 3, 2, 2, 2, 137, 139, 5, 12, 7, 2, 138, 137, 3, 2, 2, 2, 139, 140, 3, 2, 2, 2, 140, 138, 3, 2, 2, 2, 140, 141, 3, 2, 2, 2, 141, 143, 3, 2, 2, 2, 142, 133, 3, 2, 2, 2, 143, 144, 3, 2, 2, 2, 144, 142, 3, 2, 2, 2, 144, 145, 3, 2, 2, 2, 145, 147, 3, 2, 2, 2, 146, 148, 7, 15, 2, 2, 147, 146, 3, 2, 2, 2, 147, 148, 3, 2, 2, 2, 148, 19, 3, 2, 2, 2, 149, 151, 7, 18, 2, 2, 150, 149, 3, 2, 2, 2, 150, 151, 3, 2, 2, 2, 151, 169, 3, 2, 2, 2, 152, 154, 7, 15, 2, 2, 153, 152, 3, 2, 2, 2, 154, 157, 3, 2, 2, 2, 155, 156, 3, 2, 2, 2, 155, 153, 3, 2, 2, 2, 156, 158, 3, 2, 2, 2, 157, 155, 3, 2, 2, 2, 158, 162, 5, 30, 16, 2, 159, 161, 7, 15, 2, 2, 160, 159, 3, 2, 2, 2, 161, 164, 3, 2, 2, 2, 162, 163, 3, 2, 2, 2, 162, 160, 3, 2, 2, 2, 163, 165, 3, 2, 2, 2, 164, 162, 3, 2, 2, 2, 165, 166, 9, 3, 2, 2, 166, 168, 3, 2, 2, 2, 167, 155, 3, 2, 2, 2, 168, 171, 3, 2, 2, 2, 169, 170, 3, 2, 2, 2, 169, 167, 3, 2, 2, 2, 170, 172, 3, 2, 2, 2, 171, 169, 3, 2, 2, 2, 172, 173, 5, 30, 16, 2, 173, 21, 3, 2, 2, 2, 174, 175, 5, 14, 8, 2, 175, 176, 7, 3, 2, 2, 176, 23, 3, 2, 2, 2, 177, 179, 5, 22, 12, 2, 178, 177, 3, 2, 2, 2, 178, 179, 3, 2, 2, 2, 179, 180, 3, 2, 2, 2, 180, 184, 5, 20, 11, 2, 181, 183, 7, 15, 2, 2, 182, 181, 3, 2, 2, 2, 183, 186, 3, 2, 2, 2, 184, 185, 3, 2, 2, 2, 184, 182, 3, 2, 2, 2, 185, 187, 3, 2, 2, 2, 186, 184, 3, 2, 2, 2, 187, 191, 5, 42, 22, 2, 188, 190, 7, 15, 2, 2, 189, 188, 3, 2, 2, 2, 190, 193, 3, 2, 2, 2, 191, 192, 3, 2, 2, 2, 191, 189, 3, 2, 2, 2, 192, 194, 3, 2, 2, 2, 193, 191, 3, 2, 2, 2, 194, 195, 7, 16, 2, 2, 195, 25, 3, 2, 2, 2, 196, 198, 5, 22, 12, 2, 197, 196, 3, 2, 2, 2, 197, 198, 3, 2, 2, 2, 198, 199, 3, 2, 2, 2, 199, 200, 5, 20, 11, 2, 200, 27, 3, 2, 2, 2, 201, 205, 7, 12, 2, 2, 202, 204, 7, 5, 2, 2, 203, 202, 3, 2, 2, 2, 204, 207, 3, 2, 2, 2, 205, 203, 3, 2, 2, 2, 205, 206, 3, 2, 2, 2, 206, 208, 3, 2, 2, 2, 207, 205, 3, 2, 2, 2, 208, 209, 7, 2, 2, 3, 209, 29, 3, 2, 2, 2, 210, 221, 7, 16, 2, 2, 211, 215, 7, 16, 2, 2, 212, 214, 7, 15, 2, 2, 213, 212, 3, 2, 2, 2, 214, 217, 3, 2, 2, 2, 215, 216, 3, 2, 2, 2, 215, 213, 3, 2, 2, 2, 216, 218, 3, 2, 2, 2, 217, 215, 3, 2, 2, 2, 218, 221, 5, 12, 7, 2, 219, 221, 5, 12, 7, 2, 220, 210, 3, 2, 2, 2, 220, 211, 3, 2, 2, 2, 220, 219, 3, 2, 2, 2, 221, 31, 3, 2, 2, 2, 222, 226, 5, 36, 19, 2, 223, 226, 5, 34, 18, 2, 224, 226, 5, 38, 20, 2, 225, 222, 3, 2, 2, 2, 225, 223, 3, 2, 2, 2, 225, 224, 3, 2, 2, 2, 226, 33, 3, 2, 2, 2, 227, 228, 5, 40, 21, 2, 228, 229, 5, 42, 22, 2, 229, 230, 5, 12, 7, 2, 230, 236, 3, 2, 2, 2, 231, 232, 5, 12, 7, 2, 232, 233, 5, 42, 22, 2, 233, 234, 5, 40, 21, 2, 234, 236, 3, 2, 2, 2, 235, 227, 3, 2, 2, 2, 235, 231, 3, 2, 2, 2, 236, 35, 3, 2, 2, 2, 237, 241, 5, 40, 21, 2, 238, 240, 7, 15, 2, 2, 239, 238, 3, 2, 2, 2, 240, 243, 3, 2, 2, 2, 241, 242, 3, 2, 2, 2, 241, 239, 3, 2, 2, 2, 242, 244, 3, 2, 2, 2, 243, 241, 3, 2, 2, 2, 244, 248, 5, 42, 22, 2, 245, 247, 7, 15, 2, 2, 246, 245, 3, 2, 2, 2, 247, 250, 3, 2, 2, 2, 248, 249, 3, 2, 2, 2, 248, 246, 3, 2, 2, 2, 249, 251, 3, 2, 2, 2, 250, 248, 3, 2, 2, 2, 251, 255, 5, 12, 7, 2, 252, 254, 7, 15, 2, 2, 253, 252, 3, 2, 2, 2, 254, 257, 3, 2, 2, 2, 255, 256, 3, 2, 2, 2, 255, 253, 3, 2, 2, 2, 256, 258, 3, 2, 2, 2, 257, 255, 3, 2, 2, 2, 258, 262, 5, 42, 22, 2, 259, 261, 7, 15, 2, 2, 260, 259, 3, 2, 2, 2, 261, 264, 3, 2, 2, 2, 262, 263, 3, 2, 2, 2, 262, 260, 3, 2, 2, 2, 263, 265, 3, 2, 2, 2, 264, 262, 3, 2, 2, 2, 265, 266, 5, 40, 21, 2, 266, 37, 3, 2, 2, 2, 267, 271, 5, 12, 7, 2, 268, 270, 7, 15, 2, 2, 269, 268, 3, 2, 2, 2, 270, 273, 3, 2, 2, 2, 271, 272, 3, 2, 2, 2, 271, 269, 3, 2, 2, 2, 272, 274, 3, 2, 2, 2, 273, 271, 3, 2, 2, 2, 274, 275, 7, 4, 2, 2, 275, 39, 3, 2, 2, 2, 276, 281, 7, 16, 2, 2, 277, 281, 7, 13, 2, 2, 278, 279, 7, 18, 2, 2, 279, 281, 7, 13, 2, 2, 280, 276, 3, 2, 2, 2, 280, 277, 3, 2, 2, 2, 280, 278, 3, 2, 2, 2, 281, 41, 3, 2, 2, 2, 282, 283, 9, 4, 2, 2, 283, 43, 3, 2, 2, 2, 43, 48, 51, 54, 57, 59, 68, 75, 79, 85, 90, 93, 99, 104, 107, 117, 122, 126, 129, 135, 140, 144, 147, 150, 155, 162, 169, 178, 184, 191, 197, 205, 215, 220, 225, 235, 241, 248, 255, 262, 271, 280]